; benchmark generated from python API
(set-info :status unknown)
(declare-fun S_3 () Real)
(declare-fun S_2 () Real)
(declare-fun C () Real)
(declare-fun S_4 () Real)
(declare-fun S_0 () Real)
(declare-fun S_1 () Real)
(declare-fun A_4 () Real)
(declare-fun L_3 () Real)
(declare-fun L_0 () Real)
(declare-fun A_0 () Real)
(declare-fun L0 () Real)
(declare-fun A_1 () Real)
(declare-fun A_3 () Real)
(declare-fun L_1 () Real)
(declare-fun A_2 () Real)
(declare-fun L_2 () Real)
(assert
 (let (($x37 (>= L0 0.0)))
 (let (($x771 (>= C 5.0)))
 (let (($x18000 (<= (+ (* 2.0 C) A_1 L_3 (* (- 1.0) A_3) (* (- 1.0) L_0)) (- 5.0))))
 (let (($x16937 (>= (+ (* (- 1.0) A_2) L_1 (* (- 1.0) C) (* (- 1.0) L_3) A_3) 5.0)))
 (let (($x74 (= L_3 L_2)))
 (let (($x27659 (or $x74 $x16937 $x18000 (<= (+ (* 3.0 C) L_3 (* (- 1.0) A_3) S_0) (- 5.0)))))
 (let (($x17856 (<= (+ (* 2.0 C) S_0 (* (- 1.0) S_3)) 0.0)))
 (let (($x16398 (<= (+ C A_1 (* (- 1.0) L_0) (* (- 1.0) S_3)) 0.0)))
 (let ((?x332 (* (- 1.0) L_1)))
 (let ((?x866 (+ A_2 ?x332)))
 (let (($x4440 (>= S_3 ?x866)))
 (let (($x64 (= L_2 L_1)))
 (let (($x27765 (or $x64 (<= (+ C (* (- 1.0) A_2) L_2 A_1 (* (- 1.0) L_0)) (- 5.0)) (<= (+ (* 2.0 C) (* (- 1.0) A_2) L_2 S_0) (- 5.0)))))
 (let (($x54 (= L_1 L_0)))
 (let (($x27839 (or $x54 (<= (+ (* (- 3.0) C) L_1 (* (- 1.0) A_1) S_4) (- 5.0)))))
 (let (($x17761 (or $x54 (<= (+ (* (- 1.0) C) L_1 (* (- 1.0) A_1) S_2) (- 5.0)))))
 (let (($x17489 (or $x54 (<= (+ (* (- 2.0) C) L_1 (* (- 1.0) A_1) S_3) (- 5.0)))))
 (let ((?x494 (* (- 1.0) A_3)))
 (let ((?x1322 (* (- 2.0) L_1)))
 (let ((?x17039 (+ A_2 ?x1322 L_3 ?x494 A_1 C)))
 (let (($x16717 (<= L_1 (+ L_3 ?x494 A_1 (* 2.0 C)))))
 (let (($x16718 (not $x16717)))
 (let (($x16686 (= (+ (* (- 2.0) C) L_1 (* (- 1.0) L_3) (* (- 1.0) A_1) A_3) 0.0)))
 (let (($x27606 (or $x74 (<= (+ A_2 ?x1322 L_3 ?x494 A_1) (+ A_0 (* (- 1.0) L_0))) $x16686 $x16718)))
 (let (($x28164 (or $x74 $x16686 $x16718 (>= S_0 (+ A_2 ?x1322 L_3 ?x494 A_1 (* (- 1.0) C))))))
 (let ((?x502 (* (- 1.0) A_1)))
 (let ((?x473 (* (- 1.0) L_3)))
 (let ((?x498 (* (- 1.0) A_2)))
 (let (($x5728 (= L_2 L_0)))
 (let (($x1314 (not (= L_0 L_1))))
 (let (($x17261 (or $x1314 $x5728 (<= (+ C ?x498 L_2 A_1 (* (- 1.0) L_0)) 0.0))))
 (let (($x17189 (<= (+ C L_1 ?x502 (* (- 1.0) L_2) A_2 S_0 (* (- 1.0) S_3)) 0.0)))
 (let (($x28624 (or (<= (+ A_1 (* (- 1.0) L_0) (* (- 1.0) S_2)) 0.0) (<= (+ C (* (- 1.0) S_2) S_0) 0.0))))
 (let (($x1059 (<= 0.0 (+ (* (- 1.0) L_2) L_1))))
 (let (($x1225 (= L_3 L_1)))
 (let (($x896 (not (<= 0.0 (+ ?x332 L_0)))))
 (let (($x770 (not (= L_1 L_2))))
 (let (($x15841 (or $x770 $x896 $x1225 (<= (+ C L_3 ?x494 (* (- 1.0) L_0) A_2) 0.0))))
 (let (($x36 (>= L_0 L0)))
 (let (($x111 (>= S_1 S_0)))
 (let (($x114 (>= S_2 S_1)))
 (let (($x117 (>= S_3 S_2)))
 (let (($x122 (>= A_1 A_0)))
 (let (($x123 (>= A_2 A_1)))
 (let (($x124 (>= A_3 A_2)))
 (and (<= (+ A_3 ?x473) S_4) $x124 $x123 $x122 $x117 $x114 $x111 $x36 (or $x64 $x74 (= (+ (* (- 1.0) C) ?x498 L_2 ?x473 A_3) 0.0)) (or $x64 (not $x1059)) (or $x64 (<= (+ C S_1 (* (- 1.0) S_3)) 0.0)) (or $x74 (not (<= 0.0 (+ L_2 ?x473)))) $x15841 (or $x74 (<= (+ (* (- 1.0) C) L_3 ?x494 S_4) (- 5.0))) (<= (+ (* (- 1.0) C) L_0 S_1 (* (- 1.0) A_0)) 0.0) (or $x64 (not (= L_2 L_3)) (<= 0.0 (+ C A_2 ?x494))) (<= (+ (* (- 2.0) C) S_4 (* (- 1.0) S_3)) 0.0) (<= (+ (* (- 1.0) C) L_2 ?x494 S_4) 0.0) (or $x54 $x1059 (= (+ C ?x332 A_1 L_2 ?x498) 0.0)) (or $x64 (<= (+ (* (- 2.0) C) L_2 ?x498 S_4) (- 5.0))) (or $x54 $x770 (<= 0.0 (+ C A_1 ?x498))) (or $x64 (<= (+ L_2 ?x498 S_2) (- 5.0))) (or $x54 $x896) (or $x64 (<= (+ (* (- 1.0) C) ?x498 L_2 S_3) (- 5.0))) (<= (+ L_2 ?x494 S_3) 0.0) (or $x74 (<= (+ L_3 ?x494 S_3) (- 5.0))) (or $x74 $x16686 $x16718 $x16937) (or $x74 (<= (+ (* 2.0 C) L_3 ?x494 S_1) (- 5.0)) $x16937) (or $x54 (<= (+ L_1 ?x502 S_1) (- 5.0))) (or (<= (+ C S_1 (* (- 1.0) S_3)) 0.0) $x4440) $x28624 (or $x54 (<= (+ C L_1 ?x502 S_0) (- 5.0))) (<= S_2 ?x866) (or $x54 $x17189) (<= S_3 (+ A_2 ?x332 C)) $x17261 (<= (+ (* (- 2.0) C) (* (- 1.0) S_1) S_2) 0.0) (<= (+ L_1 ?x502 S_1) 0.0) (or $x54 $x16717) (or $x74 (>= S_1 (+ A_2 ?x1322 L_3 ?x494 A_1)) $x16686 $x16718) (or $x54 (<= S_1 ?x17039)) (or $x54 (<= (+ ?x498 L_2 ?x473 A_3 L_1 ?x502 S_0) 0.0)) (or $x1225 $x4440 $x16686 $x16718 (not $x16937)) $x28164 $x27606 (or $x74 $x16686 $x16718 (>= S_2 ?x17039)) (<= (+ (* (- 5.0) C) S_4 (* (- 1.0) S_0)) 0.0) $x17489 (<= (+ (* (- 4.0) C) (* (- 1.0) S_0) S_3) 0.0) (<= (+ (* (- 2.0) C) ?x502 L_0 S_3) 0.0) (<= (+ (* (- 4.0) C) L_0 S_4 (* (- 1.0) A_0)) 0.0) (<= S_4 (+ A_2 ?x332 (* 2.0 C))) $x17761 (<= (+ (* (- 3.0) C) S_2 (* (- 1.0) S_0)) 0.0) (<= (+ (* (- 1.0) C) ?x502 L_0 S_2) 0.0) (<= (+ (* (- 3.0) C) (* (- 1.0) A_0) L_0 S_3) 0.0) (<= (+ (* (- 3.0) C) (* (- 1.0) S_1) S_3) 0.0) (<= (+ (* (- 2.0) C) S_2 (* (- 1.0) A_0) L_0) 0.0) (<= (+ (* (- 4.0) C) (* (- 1.0) S_1) S_4) 0.0) (or $x54 $x4440 $x17856) $x27839 $x27765 (or $x64 $x16398 $x17856) (or $x64 (<= (+ C ?x498 L_2 S_1) (- 5.0))) (or $x74 (<= (+ C L_3 ?x494 S_2) (- 5.0))) (or $x4440 $x16398 $x17856) $x27659 (<= (+ (* (- 3.0) C) ?x502 L_0 S_4) 0.0) $x771 $x37 (<= (+ (* (- 1.0) A_0) S_0 L_0) 0.0) (not (>= (+ L_3 (* (- 1.0) A_4) S_4) 0.0)) (<= (+ (* (- 2.0) C) S_1 (* (- 1.0) S_0)) 0.0) (<= (+ (* (- 3.0) C) S_4 (* (- 1.0) S_2)) 0.0) (<= (+ (* (- 2.0) C) (* (- 1.0) S_2) S_3) 0.0))))))))))))))))))))))))))))))))))))))))))))))))
(check-sat)
